words_train/words_471_SAT.qaiger
aag 114 24 0 1 90
30
22
4
8
38
26
28
2
6
24
32
34
42
46
36
44
18
48
16
20
12
10
14
40
228
50 37 35
52 50 39
54 52 41
56 54 43
58 56 45
60 58 47
62 59 46
64 63 61
66 7 5
68 66 9
70 68 11
72 70 13
74 72 15
76 73 14
78 77 75
80 79 30
82 78 31
84 83 81
86 85 64
88 57 44
90 89 59
92 71 12
94 93 73
96 95 28
98 94 29
100 99 97
102 101 90
104 55 42
106 105 57
108 69 10
110 109 71
112 111 26
114 110 27
116 115 113
118 116 107
120 53 40
122 121 55
124 67 8
126 125 69
128 127 24
130 126 25
132 131 129
134 132 123
136 6 4
138 137 67
140 139 22
142 138 23
144 143 141
146 51 38
148 147 53
150 149 144
152 34 3
154 152 36
156 155 51
158 153 37
160 20 4
162 21 5
164 163 161
166 165 159
168 167 156
170 148 145
172 171 169
174 173 151
176 174 135
178 133 122
180 117 106
182 181 179
184 182 177
186 185 119
188 187 103
190 84 65
192 100 91
194 193 191
196 194 189
198 197 87
200 48 33
202 49 32
204 203 201
206 205 16
208 204 17
210 209 207
212 74 60
214 75 61
216 215 213
218 217 210
220 216 211
222 221 219
224 223 199
226 222 198
228 227 225
i0 2 y[6]
i1 2 y[2]
i2 1 x[1]
i3 1 x[3]
i4 2 z[2]
i5 2 y[4]
i6 2 y[5]
i7 1 x[0]
i8 1 x[2]
i9 2 y[3]
i10 2 y[7]
i11 2 z[0]
i12 2 z[4]
i13 2 z[6]
i14 2 z[1]
i15 2 z[5]
i16 2 y[0]
i17 2 z[7]
i18 1 x[7]
i19 2 y[1]
i20 1 x[5]
i21 1 x[4]
i22 1 x[6]
i23 2 z[3]
o0 bv[0]
c
simplified
  >
    2 z
    xor
      subtract
        1
        1 x
      or
        1
        2 y
