words_train/words_471_SAT.qaiger.qdimacs
p cnf 114 271
a 1 2 3 4 5 6 7 8 0
e 9 10 11 12 13 14 15 16 17 18 19 20 21 22 23 24 25 26 27 28 29 30 31 32 33 34 35 36 37 38 39 40 41 42 43 44 45 46 47 48 49 50 51 52 53 54 55 56 57 58 59 60 61 62 63 64 65 66 67 68 69 70 71 72 73 74 75 76 77 78 79 80 81 82 83 84 85 86 87 88 89 90 91 92 93 94 95 96 97 98 99 100 101 102 103 104 105 106 107 108 109 110 111 112 113 114 0
18 17 25 0
-18 -25 0
-17 -25 0
-25 19 26 0
25 -26 0
-19 -26 0
-26 20 27 0
26 -27 0
-20 -27 0
-27 21 28 0
27 -28 0
-21 -28 0
-28 22 29 0
28 -29 0
-22 -29 0
-29 23 30 0
29 -30 0
-23 -30 0
29 -23 31 0
-29 -31 0
23 -31 0
31 30 32 0
-31 -32 0
-30 -32 0
3 2 33 0
-3 -33 0
-2 -33 0
-33 4 34 0
33 -34 0
-4 -34 0
-34 5 35 0
34 -35 0
-5 -35 0
-35 6 36 0
35 -36 0
-6 -36 0
-36 7 37 0
36 -37 0
-7 -37 0
36 -7 38 0
-36 -38 0
7 -38 0
38 37 39 0
-38 -39 0
-37 -39 0
39 -15 40 0
-39 -40 0
15 -40 0
-39 15 41 0
39 -41 0
-15 -41 0
41 40 42 0
-41 -42 0
-40 -42 0
42 -32 43 0
-42 -43 0
32 -43 0
28 -22 44 0
-28 -44 0
22 -44 0
44 29 45 0
-44 -45 0
-29 -45 0
35 -6 46 0
-35 -46 0
6 -46 0
46 36 47 0
-46 -47 0
-36 -47 0
47 -14 48 0
-47 -48 0
14 -48 0
-47 14 49 0
47 -49 0
-14 -49 0
49 48 50 0
-49 -50 0
-48 -50 0
50 -45 51 0
-50 -51 0
45 -51 0
27 -21 52 0
-27 -52 0
21 -52 0
52 28 53 0
-52 -53 0
-28 -53 0
34 -5 54 0
-34 -54 0
5 -54 0
54 35 55 0
-54 -55 0
-35 -55 0
55 -13 56 0
-55 -56 0
13 -56 0
-55 13 57 0
55 -57 0
-13 -57 0
57 56 58 0
-57 -58 0
-56 -58 0
-58 53 59 0
58 -59 0
-53 -59 0
26 -20 60 0
-26 -60 0
20 -60 0
60 27 61 0
-60 -61 0
-27 -61 0
33 -4 62 0
-33 -62 0
4 -62 0
62 34 63 0
-62 -63 0
-34 -63 0
63 -12 64 0
-63 -64 0
12 -64 0
-63 12 65 0
63 -65 0
-12 -65 0
65 64 66 0
-65 -66 0
-64 -66 0
-66 61 67 0
66 -67 0
-61 -67 0
-3 -2 68 0
3 -68 0
2 -68 0
68 33 69 0
-68 -69 0
-33 -69 0
69 -11 70 0
-69 -70 0
11 -70 0
-69 11 71 0
69 -71 0
-11 -71 0
71 70 72 0
-71 -72 0
-70 -72 0
25 -19 73 0
-25 -73 0
19 -73 0
73 26 74 0
-73 -74 0
-26 -74 0
74 -72 75 0
-74 -75 0
72 -75 0
-17 1 76 0
17 -76 0
-1 -76 0
-76 -18 77 0
76 -77 0
18 -77 0
77 25 78 0
-77 -78 0
-25 -78 0
76 18 79 0
-76 -79 0
-18 -79 0
-10 -2 80 0
10 -80 0
2 -80 0
10 2 81 0
-10 -81 0
-2 -81 0
81 80 82 0
-81 -82 0
-80 -82 0
82 79 83 0
-82 -83 0
-79 -83 0
83 -78 84 0
-83 -84 0
78 -84 0
-74 72 85 0
74 -85 0
-72 -85 0
85 84 86 0
-85 -86 0
-84 -86 0
86 75 87 0
-86 -87 0
-75 -87 0
-87 67 88 0
87 -88 0
-67 -88 0
66 -61 89 0
-66 -89 0
61 -89 0
58 -53 90 0
-58 -90 0
53 -90 0
90 89 91 0
-90 -91 0
-89 -91 0
-91 88 92 0
91 -92 0
-88 -92 0
92 59 93 0
-92 -93 0
-59 -93 0
93 51 94 0
-93 -94 0
-51 -94 0
-42 32 95 0
42 -95 0
-32 -95 0
-50 45 96 0
50 -96 0
-45 -96 0
96 95 97 0
-96 -97 0
-95 -97 0
-97 94 98 0
97 -98 0
-94 -98 0
98 43 99 0
-98 -99 0
-43 -99 0
-24 16 100 0
24 -100 0
-16 -100 0
24 -16 101 0
-24 -101 0
16 -101 0
101 100 102 0
-101 -102 0
-100 -102 0
102 -8 103 0
-102 -103 0
8 -103 0
-102 8 104 0
102 -104 0
-8 -104 0
104 103 105 0
-104 -105 0
-103 -105 0
-37 -30 106 0
37 -106 0
30 -106 0
37 30 107 0
-37 -107 0
-30 -107 0
107 106 108 0
-107 -108 0
-106 -108 0
108 -105 109 0
-108 -109 0
105 -109 0
-108 105 110 0
108 -110 0
-105 -110 0
110 109 111 0
-110 -111 0
-109 -111 0
111 99 112 0
-111 -112 0
-99 -112 0
-111 -99 113 0
111 -113 0
99 -113 0
113 112 114 0
-113 -114 0
-112 -114 0
114 0
